;; translated from ./ctigar/bound.c.vmt
;; original benchmark available at: https://es-static.fbk.eu/people/griggio/ic3ia/index.html
;; author: Alberto Griggio <griggio@fbk.eu>
(set-logic HORN)
(declare-fun state (Bool Bool Bool Bool Bool Int Int Int Int Int Int) Bool)
(assert (forall ((|.s.2| Bool) (|.s.3| Bool) (|.s.0| Bool) (|.s.1| Bool) (|.s.3.next| Bool) (|.s.0.next| Bool) (|.s.1.next| Bool) (|.s.2.next| Bool) (|.s.4.next| Bool) (|main.i.next| Int) (|main.i| Int) (|main.j.next| Int) (|main.j| Int) (|main.k.next| Int) (|main.k| Int) (|main.h.next| Int) (|main.h| Int) (|main.m.next| Int) (|main.m| Int) (|main.n.next| Int) (|main.n| Int) (|.s.4| Bool)) (=> (let ((.def_20 (not .s.4)))
(let ((.def_17 (not .s.3)))
(let ((.def_14 (not .s.2)))
(let ((.def_10 (not .s.1)))
(let ((.def_12 (and .def_10 .s.0)))
(let ((.def_15 (and .def_12 .def_14)))
(let ((.def_18 (and .def_15 .def_17)))
(let ((.def_21 (and .def_18 .def_20)))
.def_21)))))))) (state |.s.1| |.s.0| |.s.2| |.s.3| |.s.4| |main.i| |main.j| |main.k| |main.h| |main.m| |main.n|))))
(assert (forall ((|.s.2| Bool) (|.s.3| Bool) (|.s.0| Bool) (|.s.1| Bool) (|.s.3.next| Bool) (|.s.0.next| Bool) (|.s.1.next| Bool) (|.s.2.next| Bool) (|.s.4.next| Bool) (|main.i.next| Int) (|main.i| Int) (|main.j.next| Int) (|main.j| Int) (|main.k.next| Int) (|main.k| Int) (|main.h.next| Int) (|main.h| Int) (|main.m.next| Int) (|main.m| Int) (|main.n.next| Int) (|main.n| Int) (|.s.4| Bool)) (=> (and (state |.s.1| |.s.0| |.s.2| |.s.3| |.s.4| |main.i| |main.j| |main.k| |main.h| |main.m| |main.n|) (let ((.def_22 (not .s.0)))
(let ((.def_10 (not .s.1)))
(let ((.def_23 (and .def_10 .def_22)))
(let ((.def_14 (not .s.2)))
(let ((.def_24 (and .def_14 .def_23)))
(let ((.def_17 (not .s.3)))
(let ((.def_185 (and .def_17 .def_24)))
(let ((.def_20 (not .s.4)))
(let ((.def_414 (and .def_20 .def_185)))
(let ((.def_415 (not .def_414)))
(let ((.def_71 (not .s.3.next)))
(let ((.def_33 (not .s.0.next)))
(let ((.def_31 (not .s.1.next)))
(let ((.def_34 (and .def_31 .def_33)))
(let ((.def_29 (not .s.2.next)))
(let ((.def_35 (and .def_29 .def_34)))
(let ((.def_72 (and .def_35 .def_71)))
(let ((.def_70 (not .s.4.next)))
(let ((.def_73 (and .def_70 .def_72)))
(let ((.def_42 (= main.i main.i.next)))
(let ((.def_74 (and .def_42 .def_73)))
(let ((.def_46 (= main.j main.j.next)))
(let ((.def_75 (and .def_46 .def_74)))
(let ((.def_50 (= main.k main.k.next)))
(let ((.def_76 (and .def_50 .def_75)))
(let ((.def_54 (= main.h main.h.next)))
(let ((.def_77 (and .def_54 .def_76)))
(let ((.def_58 (= main.m main.m.next)))
(let ((.def_78 (and .def_58 .def_77)))
(let ((.def_62 (= main.n main.n.next)))
(let ((.def_79 (and .def_62 .def_78)))
(let ((.def_416 (or .def_79 .def_415)))
(let ((.def_86 (and .s.1.next .s.0.next)))
(let ((.def_160 (and .def_29 .def_86)))
(let ((.def_161 (and .def_71 .def_160)))
(let ((.def_406 (and .def_70 .def_161)))
(let ((.def_407 (and .def_42 .def_406)))
(let ((.def_408 (and .def_46 .def_407)))
(let ((.def_409 (and .def_50 .def_408)))
(let ((.def_410 (and .def_54 .def_409)))
(let ((.def_411 (and .def_58 .def_410)))
(let ((.def_412 (and .def_62 .def_411)))
(let ((.def_392 (<= 0 main.n)))
(let ((.def_12 (and .def_10 .s.0)))
(let ((.def_15 (and .def_12 .def_14)))
(let ((.def_18 (and .def_15 .def_17)))
(let ((.def_21 (and .def_18 .def_20)))
(let ((.def_404 (and .def_21 .def_392)))
(let ((.def_405 (not .def_404)))
(let ((.def_413 (or .def_405 .def_412)))
(let ((.def_417 (and .def_413 .def_416)))
(let ((.def_104 (and .s.1.next .def_33)))
(let ((.def_175 (and .def_29 .def_104)))
(let ((.def_176 (and .def_71 .def_175)))
(let ((.def_396 (and .def_70 .def_176)))
(let ((.def_397 (and .def_42 .def_396)))
(let ((.def_398 (and .def_46 .def_397)))
(let ((.def_399 (and .def_50 .def_398)))
(let ((.def_400 (and .def_54 .def_399)))
(let ((.def_401 (and .def_58 .def_400)))
(let ((.def_402 (and .def_62 .def_401)))
(let ((.def_393 (not .def_392)))
(let ((.def_394 (and .def_21 .def_393)))
(let ((.def_395 (not .def_394)))
(let ((.def_403 (or .def_395 .def_402)))
(let ((.def_418 (and .def_403 .def_417)))
(let ((.def_81 (and .s.1 .def_22)))
(let ((.def_153 (and .def_14 .def_81)))
(let ((.def_154 (and .def_17 .def_153)))
(let ((.def_389 (and .def_20 .def_154)))
(let ((.def_390 (not .def_389)))
(let ((.def_391 (or .def_79 .def_390)))
(let ((.def_419 (and .def_391 .def_418)))
(let ((.def_191 (and .def_31 .s.0.next)))
(let ((.def_204 (and .s.2.next .def_191)))
(let ((.def_205 (and .def_71 .def_204)))
(let ((.def_381 (and .def_70 .def_205)))
(let ((.def_382 (and .def_42 .def_381)))
(let ((.def_383 (and .def_46 .def_382)))
(let ((.def_384 (and .def_50 .def_383)))
(let ((.def_385 (and .def_54 .def_384)))
(let ((.def_386 (and .def_58 .def_385)))
(let ((.def_387 (and .def_62 .def_386)))
(let ((.def_367 (<= main.n 200)))
(let ((.def_65 (and .s.1 .s.0)))
(let ((.def_131 (and .def_14 .def_65)))
(let ((.def_132 (and .def_17 .def_131)))
(let ((.def_365 (and .def_20 .def_132)))
(let ((.def_379 (and .def_365 .def_367)))
(let ((.def_380 (not .def_379)))
(let ((.def_388 (or .def_380 .def_387)))
(let ((.def_420 (and .def_388 .def_419)))
(let ((.def_135 (and .s.2.next .def_34)))
(let ((.def_136 (and .def_71 .def_135)))
(let ((.def_371 (and .def_70 .def_136)))
(let ((.def_372 (and .def_42 .def_371)))
(let ((.def_373 (and .def_46 .def_372)))
(let ((.def_374 (and .def_50 .def_373)))
(let ((.def_375 (and .def_54 .def_374)))
(let ((.def_376 (and .def_58 .def_375)))
(let ((.def_377 (and .def_62 .def_376)))
(let ((.def_368 (not .def_367)))
(let ((.def_369 (and .def_365 .def_368)))
(let ((.def_370 (not .def_369)))
(let ((.def_378 (or .def_370 .def_377)))
(let ((.def_421 (and .def_378 .def_420)))
(let ((.def_119 (and .s.2 .def_23)))
(let ((.def_120 (and .def_17 .def_119)))
(let ((.def_362 (and .def_20 .def_120)))
(let ((.def_363 (not .def_362)))
(let ((.def_364 (or .def_79 .def_363)))
(let ((.def_422 (and .def_364 .def_421)))
(let ((.def_105 (and .s.2.next .def_104)))
(let ((.def_106 (and .def_71 .def_105)))
(let ((.def_354 (and .def_70 .def_106)))
(let ((.def_353 (= main.k.next 0)))
(let ((.def_355 (and .def_353 .def_354)))
(let ((.def_356 (and .def_42 .def_355)))
(let ((.def_357 (and .def_46 .def_356)))
(let ((.def_358 (and .def_54 .def_357)))
(let ((.def_359 (and .def_58 .def_358)))
(let ((.def_360 (and .def_62 .def_359)))
(let ((.def_97 (and .def_12 .s.2)))
(let ((.def_98 (and .def_17 .def_97)))
(let ((.def_351 (and .def_20 .def_98)))
(let ((.def_352 (not .def_351)))
(let ((.def_361 (or .def_352 .def_360)))
(let ((.def_423 (and .def_361 .def_422)))
(let ((.def_87 (and .s.2.next .def_86)))
(let ((.def_88 (and .def_71 .def_87)))
(let ((.def_343 (and .def_70 .def_88)))
(let ((.def_342 (= main.i.next main.n)))
(let ((.def_344 (and .def_342 .def_343)))
(let ((.def_345 (and .def_46 .def_344)))
(let ((.def_346 (and .def_50 .def_345)))
(let ((.def_347 (and .def_54 .def_346)))
(let ((.def_348 (and .def_58 .def_347)))
(let ((.def_349 (and .def_62 .def_348)))
(let ((.def_82 (and .s.2 .def_81)))
(let ((.def_83 (and .def_17 .def_82)))
(let ((.def_340 (and .def_20 .def_83)))
(let ((.def_341 (not .def_340)))
(let ((.def_350 (or .def_341 .def_349)))
(let ((.def_424 (and .def_350 .def_423)))
(let ((.def_140 (* (- 1) main.h.next)))
(let ((.def_266 (+ main.k .def_140)))
(let ((.def_267 (+ main.i .def_266)))
(let ((.def_268 (= .def_267 0)))
(let ((.def_37 (and .def_35 .s.3.next)))
(let ((.def_253 (and .def_37 .def_70)))
(let ((.def_333 (and .def_253 .def_268)))
(let ((.def_334 (and .def_42 .def_333)))
(let ((.def_335 (and .def_46 .def_334)))
(let ((.def_336 (and .def_50 .def_335)))
(let ((.def_337 (and .def_58 .def_336)))
(let ((.def_338 (and .def_62 .def_337)))
(let ((.def_66 (and .s.2 .def_65)))
(let ((.def_67 (and .def_17 .def_66)))
(let ((.def_331 (and .def_20 .def_67)))
(let ((.def_332 (not .def_331)))
(let ((.def_339 (or .def_332 .def_338)))
(let ((.def_425 (and .def_339 .def_424)))
(let ((.def_322 (and .s.3.next .def_204)))
(let ((.def_323 (and .def_70 .def_322)))
(let ((.def_324 (and .def_42 .def_323)))
(let ((.def_325 (and .def_46 .def_324)))
(let ((.def_326 (and .def_50 .def_325)))
(let ((.def_327 (and .def_54 .def_326)))
(let ((.def_328 (and .def_58 .def_327)))
(let ((.def_329 (and .def_62 .def_328)))
(let ((.def_307 (<= main.i 0)))
(let ((.def_25 (and .s.3 .def_24)))
(let ((.def_306 (and .def_20 .def_25)))
(let ((.def_320 (and .def_306 .def_307)))
(let ((.def_321 (not .def_320)))
(let ((.def_330 (or .def_321 .def_329)))
(let ((.def_426 (and .def_330 .def_425)))
(let ((.def_192 (and .def_29 .def_191)))
(let ((.def_311 (and .s.3.next .def_192)))
(let ((.def_312 (and .def_70 .def_311)))
(let ((.def_313 (and .def_42 .def_312)))
(let ((.def_314 (and .def_46 .def_313)))
(let ((.def_315 (and .def_50 .def_314)))
(let ((.def_316 (and .def_54 .def_315)))
(let ((.def_317 (and .def_58 .def_316)))
(let ((.def_318 (and .def_62 .def_317)))
(let ((.def_308 (not .def_307)))
(let ((.def_309 (and .def_306 .def_308)))
(let ((.def_310 (not .def_309)))
(let ((.def_319 (or .def_310 .def_318)))
(let ((.def_427 (and .def_319 .def_426)))
(let ((.def_297 (and .s.3.next .def_175)))
(let ((.def_298 (and .def_70 .def_297)))
(let ((.def_294 (* (- 1) main.i.next)))
(let ((.def_295 (+ main.i .def_294)))
(let ((.def_296 (= .def_295 1)))
(let ((.def_299 (and .def_296 .def_298)))
(let ((.def_300 (and .def_46 .def_299)))
(let ((.def_301 (and .def_50 .def_300)))
(let ((.def_302 (and .def_54 .def_301)))
(let ((.def_303 (and .def_58 .def_302)))
(let ((.def_304 (and .def_62 .def_303)))
(let ((.def_291 (and .def_15 .s.3)))
(let ((.def_292 (and .def_20 .def_291)))
(let ((.def_293 (not .def_292)))
(let ((.def_305 (or .def_293 .def_304)))
(let ((.def_428 (and .def_305 .def_427)))
(let ((.def_282 (and .s.3.next .def_160)))
(let ((.def_283 (and .def_70 .def_282)))
(let ((.def_279 (* (- 1) main.k.next)))
(let ((.def_280 (+ main.k .def_279)))
(let ((.def_281 (= .def_280 (- 1))))
(let ((.def_284 (and .def_281 .def_283)))
(let ((.def_285 (and .def_42 .def_284)))
(let ((.def_286 (and .def_46 .def_285)))
(let ((.def_287 (and .def_54 .def_286)))
(let ((.def_288 (and .def_58 .def_287)))
(let ((.def_289 (and .def_62 .def_288)))
(let ((.def_276 (and .s.3 .def_153)))
(let ((.def_277 (and .def_20 .def_276)))
(let ((.def_278 (not .def_277)))
(let ((.def_290 (or .def_278 .def_289)))
(let ((.def_429 (and .def_290 .def_428)))
(let ((.def_264 (and .s.3.next .def_135)))
(let ((.def_265 (and .def_70 .def_264)))
(let ((.def_269 (and .def_265 .def_268)))
(let ((.def_270 (and .def_42 .def_269)))
(let ((.def_271 (and .def_46 .def_270)))
(let ((.def_272 (and .def_50 .def_271)))
(let ((.def_273 (and .def_58 .def_272)))
(let ((.def_274 (and .def_62 .def_273)))
(let ((.def_261 (and .s.3 .def_131)))
(let ((.def_262 (and .def_20 .def_261)))
(let ((.def_263 (not .def_262)))
(let ((.def_275 (or .def_263 .def_274)))
(let ((.def_430 (and .def_275 .def_429)))
(let ((.def_254 (and .def_42 .def_253)))
(let ((.def_255 (and .def_46 .def_254)))
(let ((.def_256 (and .def_50 .def_255)))
(let ((.def_257 (and .def_54 .def_256)))
(let ((.def_258 (and .def_58 .def_257)))
(let ((.def_259 (and .def_62 .def_258)))
(let ((.def_250 (and .s.3 .def_119)))
(let ((.def_251 (and .def_20 .def_250)))
(let ((.def_252 (not .def_251)))
(let ((.def_260 (or .def_252 .def_259)))
(let ((.def_431 (and .def_260 .def_430)))
(let ((.def_241 (and .s.3.next .def_105)))
(let ((.def_242 (and .def_70 .def_241)))
(let ((.def_240 (= main.j.next main.k)))
(let ((.def_243 (and .def_240 .def_242)))
(let ((.def_244 (and .def_42 .def_243)))
(let ((.def_245 (and .def_50 .def_244)))
(let ((.def_246 (and .def_54 .def_245)))
(let ((.def_247 (and .def_58 .def_246)))
(let ((.def_248 (and .def_62 .def_247)))
(let ((.def_237 (and .s.3 .def_97)))
(let ((.def_238 (and .def_20 .def_237)))
(let ((.def_239 (not .def_238)))
(let ((.def_249 (or .def_239 .def_248)))
(let ((.def_432 (and .def_249 .def_431)))
(let ((.def_228 (and .s.3.next .def_87)))
(let ((.def_229 (and .def_70 .def_228)))
(let ((.def_227 (= main.m.next 0)))
(let ((.def_230 (and .def_227 .def_229)))
(let ((.def_231 (and .def_42 .def_230)))
(let ((.def_232 (and .def_46 .def_231)))
(let ((.def_233 (and .def_50 .def_232)))
(let ((.def_234 (and .def_54 .def_233)))
(let ((.def_235 (and .def_62 .def_234)))
(let ((.def_224 (and .s.3 .def_82)))
(let ((.def_225 (and .def_20 .def_224)))
(let ((.def_226 (not .def_225)))
(let ((.def_236 (or .def_226 .def_235)))
(let ((.def_433 (and .def_236 .def_432)))
(let ((.def_143 (+ .def_140 main.m)))
(let ((.def_144 (+ main.j .def_143)))
(let ((.def_145 (= .def_144 0)))
(let ((.def_123 (and .s.4.next .def_72)))
(let ((.def_217 (and .def_123 .def_145)))
(let ((.def_218 (and .def_42 .def_217)))
(let ((.def_219 (and .def_46 .def_218)))
(let ((.def_220 (and .def_50 .def_219)))
(let ((.def_221 (and .def_58 .def_220)))
(let ((.def_222 (and .def_62 .def_221)))
(let ((.def_214 (and .s.3 .def_66)))
(let ((.def_215 (and .def_20 .def_214)))
(let ((.def_216 (not .def_215)))
(let ((.def_223 (or .def_216 .def_222)))
(let ((.def_434 (and .def_223 .def_433)))
(let ((.def_206 (and .s.4.next .def_205)))
(let ((.def_207 (and .def_42 .def_206)))
(let ((.def_208 (and .def_46 .def_207)))
(let ((.def_209 (and .def_50 .def_208)))
(let ((.def_210 (and .def_54 .def_209)))
(let ((.def_211 (and .def_58 .def_210)))
(let ((.def_212 (and .def_62 .def_211)))
(let ((.def_187 (<= main.j 0)))
(let ((.def_186 (and .s.4 .def_185)))
(let ((.def_202 (and .def_186 .def_187)))
(let ((.def_203 (not .def_202)))
(let ((.def_213 (or .def_203 .def_212)))
(let ((.def_435 (and .def_213 .def_434)))
(let ((.def_193 (and .def_71 .def_192)))
(let ((.def_194 (and .s.4.next .def_193)))
(let ((.def_195 (and .def_42 .def_194)))
(let ((.def_196 (and .def_46 .def_195)))
(let ((.def_197 (and .def_50 .def_196)))
(let ((.def_198 (and .def_54 .def_197)))
(let ((.def_199 (and .def_58 .def_198)))
(let ((.def_200 (and .def_62 .def_199)))
(let ((.def_188 (not .def_187)))
(let ((.def_189 (and .def_186 .def_188)))
(let ((.def_190 (not .def_189)))
(let ((.def_201 (or .def_190 .def_200)))
(let ((.def_436 (and .def_201 .def_435)))
(let ((.def_177 (and .s.4.next .def_176)))
(let ((.def_172 (* (- 1) main.j.next)))
(let ((.def_173 (+ main.j .def_172)))
(let ((.def_174 (= .def_173 1)))
(let ((.def_178 (and .def_174 .def_177)))
(let ((.def_179 (and .def_42 .def_178)))
(let ((.def_180 (and .def_50 .def_179)))
(let ((.def_181 (and .def_54 .def_180)))
(let ((.def_182 (and .def_58 .def_181)))
(let ((.def_183 (and .def_62 .def_182)))
(let ((.def_170 (and .def_18 .s.4)))
(let ((.def_171 (not .def_170)))
(let ((.def_184 (or .def_171 .def_183)))
(let ((.def_437 (and .def_184 .def_436)))
(let ((.def_162 (and .s.4.next .def_161)))
(let ((.def_157 (* (- 1) main.m.next)))
(let ((.def_158 (+ main.m .def_157)))
(let ((.def_159 (= .def_158 (- 1))))
(let ((.def_163 (and .def_159 .def_162)))
(let ((.def_164 (and .def_42 .def_163)))
(let ((.def_165 (and .def_46 .def_164)))
(let ((.def_166 (and .def_50 .def_165)))
(let ((.def_167 (and .def_54 .def_166)))
(let ((.def_168 (and .def_62 .def_167)))
(let ((.def_155 (and .s.4 .def_154)))
(let ((.def_156 (not .def_155)))
(let ((.def_169 (or .def_156 .def_168)))
(let ((.def_438 (and .def_169 .def_437)))
(let ((.def_137 (and .s.4.next .def_136)))
(let ((.def_146 (and .def_137 .def_145)))
(let ((.def_147 (and .def_42 .def_146)))
(let ((.def_148 (and .def_46 .def_147)))
(let ((.def_149 (and .def_50 .def_148)))
(let ((.def_150 (and .def_58 .def_149)))
(let ((.def_151 (and .def_62 .def_150)))
(let ((.def_133 (and .s.4 .def_132)))
(let ((.def_134 (not .def_133)))
(let ((.def_152 (or .def_134 .def_151)))
(let ((.def_439 (and .def_152 .def_438)))
(let ((.def_124 (and .def_42 .def_123)))
(let ((.def_125 (and .def_46 .def_124)))
(let ((.def_126 (and .def_50 .def_125)))
(let ((.def_127 (and .def_54 .def_126)))
(let ((.def_128 (and .def_58 .def_127)))
(let ((.def_129 (and .def_62 .def_128)))
(let ((.def_121 (and .s.4 .def_120)))
(let ((.def_122 (not .def_121)))
(let ((.def_130 (or .def_122 .def_129)))
(let ((.def_440 (and .def_130 .def_439)))
(let ((.def_101 (<= 0 main.i)))
(let ((.def_115 (not .def_101)))
(let ((.def_99 (and .s.4 .def_98)))
(let ((.def_116 (and .def_99 .def_115)))
(let ((.def_117 (not .def_116)))
(let ((.def_39 (and .def_37 .s.4.next)))
(let ((.def_43 (and .def_39 .def_42)))
(let ((.def_47 (and .def_43 .def_46)))
(let ((.def_51 (and .def_47 .def_50)))
(let ((.def_55 (and .def_51 .def_54)))
(let ((.def_59 (and .def_55 .def_58)))
(let ((.def_63 (and .def_59 .def_62)))
(let ((.def_118 (or .def_63 .def_117)))
(let ((.def_441 (and .def_118 .def_440)))
(let ((.def_107 (and .s.4.next .def_106)))
(let ((.def_108 (and .def_42 .def_107)))
(let ((.def_109 (and .def_46 .def_108)))
(let ((.def_110 (and .def_50 .def_109)))
(let ((.def_111 (and .def_54 .def_110)))
(let ((.def_112 (and .def_58 .def_111)))
(let ((.def_113 (and .def_62 .def_112)))
(let ((.def_102 (and .def_99 .def_101)))
(let ((.def_103 (not .def_102)))
(let ((.def_114 (or .def_103 .def_113)))
(let ((.def_442 (and .def_114 .def_441)))
(let ((.def_89 (and .s.4.next .def_88)))
(let ((.def_90 (and .def_42 .def_89)))
(let ((.def_91 (and .def_46 .def_90)))
(let ((.def_92 (and .def_50 .def_91)))
(let ((.def_93 (and .def_54 .def_92)))
(let ((.def_94 (and .def_58 .def_93)))
(let ((.def_95 (and .def_62 .def_94)))
(let ((.def_84 (and .s.4 .def_83)))
(let ((.def_85 (not .def_84)))
(let ((.def_96 (or .def_85 .def_95)))
(let ((.def_443 (and .def_96 .def_442)))
(let ((.def_68 (and .s.4 .def_67)))
(let ((.def_69 (not .def_68)))
(let ((.def_80 (or .def_69 .def_79)))
(let ((.def_444 (and .def_80 .def_443)))
(let ((.def_26 (and .s.4 .def_25)))
(let ((.def_27 (not .def_26)))
(let ((.def_64 (or .def_27 .def_63)))
(let ((.def_445 (and .def_64 .def_444)))
.def_445)))))))))))))))))))))))))))))))))))))))))))))))))))))))))))))))))))))))))))))))))))))))))))))))))))))))))))))))))))))))))))))))))))))))))))))))))))))))))))))))))))))))))))))))))))))))))))))))))))))))))))))))))))))))))))))))))))))))))))))))))))))))))))))))))))))))))))))))))))))))))))))))))))))))))))))))))))))))))))))))))))))))))))))))))))))))))))))))))))))))))))))))))))))))))))))))))))))))))))))))))))))))))) (state |.s.1.next| |.s.0.next| |.s.2.next| |.s.3.next| |.s.4.next| |main.i.next| |main.j.next| |main.k.next| |main.h.next| |main.m.next| |main.n.next|))))
(assert (forall ((|.s.2| Bool) (|.s.3| Bool) (|.s.0| Bool) (|.s.1| Bool) (|.s.3.next| Bool) (|.s.0.next| Bool) (|.s.1.next| Bool) (|.s.2.next| Bool) (|.s.4.next| Bool) (|main.i.next| Int) (|main.i| Int) (|main.j.next| Int) (|main.j| Int) (|main.k.next| Int) (|main.k| Int) (|main.h.next| Int) (|main.h| Int) (|main.m.next| Int) (|main.m| Int) (|main.n.next| Int) (|main.n| Int) (|.s.4| Bool)) (=> (state |.s.1| |.s.0| |.s.2| |.s.3| |.s.4| |main.i| |main.j| |main.k| |main.h| |main.m| |main.n|) (let ((.def_22 (not .s.0)))
(let ((.def_10 (not .s.1)))
(let ((.def_23 (and .def_10 .def_22)))
(let ((.def_14 (not .s.2)))
(let ((.def_24 (and .def_14 .def_23)))
(let ((.def_25 (and .s.3 .def_24)))
(let ((.def_26 (and .s.4 .def_25)))
(let ((.def_27 (not .def_26)))
.def_27)))))))))))
(check-sat)
